\ LP format - for model browsing. Use MPS format to capture full model detail.
Maximize
  51.7 z1 + 26.4 z2 + 45.1 z3 + 15.4 z4 + 28.6 z5 + 25.3 z6 + 20.9 z7
   + 12.1 z8 + 19.8 z9 + 36.3 z10 + 14.3 z11 + 50.6 z12 + 22 z13 + 35.2 z14
   + 45.1 z15 + 42.9 z16 + 39.6 z17 + 45.1 z18 + 52.8 z19 + 44 z20
Subject To
 constraint1: 47 z1 + 24 z2 + 41 z3 + 14 z4 + 26 z5 + 23 z6 + 19 z7 + 11 z8
   + 18 z9 + 33 z10 + 13 z11 + 46 z12 + 20 z13 + 32 z14 + 41 z15 + 39 z16
   + 36 z17 + 41 z18 + 48 z19 + 40 z20 <= 200
Bounds
Binaries
 z1 z2 z3 z4 z5 z6 z7 z8 z9 z10 z11 z12 z13 z14 z15 z16 z17 z18 z19 z20
End
